20,1,17,2,4,2,1,2,10,1,9,1,6,4,11,1,14,3,2,2,18,3,5,4,8,5,19,4,16,4,13,5,7,5,15,5,12,5;17,1,6,1,13,2,8,3,2,1,19,2,1,3,20,2,4,4,5,3,3,2,14,4,18,4,7,2,11,3,15,4,12,4,16,5;13,1,4,1,12,2,5,1,14,1,6,3,8,4,10,3,20,3,9,2,9,3,19,3,16,3,17,5,2,3,7,3,3,4,11,4,18,5,10,5;12,1,8,2,1,1,3,1,17,3,4,3,6,2,18,2,13,3,15,3,5,2,11,2,16,2,7,1,3,3,9,4,10,4,14,5,2,4,20,5;8,1,15,1,18,1,19,1,15,2,17,4,12,3,16,1,10,2,14,2,13,4,20,4,6,5,1,4,5,5,4,5,7,4,1,5,3,5,19,5,2,5,9,5,11,5;
